Generated using phonoLAMMPS             
   1.00000000000000     
     3.8741139749122939   -0.0000000000000000   -0.0000000000000000
     0.0000000000000000    3.8741139749122939   -0.0000000000000000
    -0.0000000000000000   -0.0000000000000000    4.1994809612774961
   Pb   Ti   O 
     1     1     3
Direct
  0.0022931268776247  0.0022931268776247  0.0942674463695551
  0.5022931268776247  0.5022931268776247  0.5560473956052198
  0.5022931268776247  0.5022931268776247  0.9784620853572163
  0.5022931268776247  0.0022931268776247  0.4732987899789199
  0.0022931268776247  0.5022931268776247  0.4732987899789199
