Ti125 Pb125 O375
1.0
  19.5200000000000000    0.0000000000000000    0.00000000000000
  -0.00000000000000   19.5200000000000000    0.00000000000000
   0.0000000000000000    0.0000000000000000   20.7600000000000000
Pb Ti O
125 125 375
direct
   0.0000000000000000    0.0000000000000000    0.0000000000000000 Pb
   0.0000000000000000    0.0000000000000000    0.2000000000000000 Pb
   0.0000000000000000    0.0000000000000000    0.4000000000000001 Pb
   0.0000000000000000    0.0000000000000000    0.6000000000000001 Pb
   0.0000000000000000    0.0000000000000000    0.8000000000000002 Pb
   0.0000000000000000    0.2000000000000000    0.0000000000000000 Pb
   0.0000000000000000    0.2000000000000000    0.2000000000000000 Pb
   0.0000000000000000    0.2000000000000000    0.4000000000000000 Pb
   0.0000000000000000    0.2000000000000000    0.6000000000000002 Pb
   0.0000000000000000    0.2000000000000000    0.8000000000000000 Pb
   0.0000000000000000    0.4000000000000000    0.0000000000000000 Pb
   0.0000000000000000    0.4000000000000000    0.2000000000000000 Pb
   0.0000000000000000    0.4000000000000000    0.4000000000000000 Pb
   0.0000000000000000    0.4000000000000000    0.6000000000000002 Pb
   0.0000000000000000    0.4000000000000000    0.8000000000000000 Pb
   0.0000000000000000    0.6000000000000001    0.0000000000000000 Pb
   0.0000000000000000    0.6000000000000001    0.2000000000000000 Pb
   0.0000000000000000    0.6000000000000001    0.4000000000000000 Pb
   0.0000000000000000    0.6000000000000001    0.6000000000000001 Pb
   0.0000000000000000    0.6000000000000001    0.8000000000000000 Pb
   0.0000000000000000    0.8000000000000000    0.0000000000000000 Pb
   0.0000000000000000    0.8000000000000000    0.2000000000000000 Pb
   0.0000000000000000    0.8000000000000000    0.4000000000000000 Pb
   0.0000000000000000    0.8000000000000000    0.6000000000000001 Pb
   0.0000000000000000    0.8000000000000000    0.8000000000000000 Pb
   0.2000000000000000    0.0000000000000000    0.0000000000000000 Pb
   0.2000000000000000    0.0000000000000000    0.2000000000000000 Pb
   0.2000000000000000    0.0000000000000000    0.4000000000000000 Pb
   0.2000000000000000    0.0000000000000000    0.6000000000000002 Pb
   0.2000000000000000    0.0000000000000000    0.8000000000000000 Pb
   0.2000000000000000    0.2000000000000000    0.0000000000000000 Pb
   0.2000000000000000    0.2000000000000000    0.2000000000000000 Pb
   0.2000000000000000    0.2000000000000000    0.4000000000000000 Pb
   0.2000000000000000    0.2000000000000000    0.6000000000000002 Pb
   0.2000000000000000    0.2000000000000000    0.8000000000000000 Pb
   0.2000000000000000    0.4000000000000000    0.0000000000000000 Pb
   0.2000000000000000    0.4000000000000000    0.2000000000000000 Pb
   0.2000000000000000    0.4000000000000000    0.4000000000000000 Pb
   0.2000000000000000    0.4000000000000000    0.6000000000000001 Pb
   0.2000000000000000    0.4000000000000000    0.8000000000000000 Pb
   0.2000000000000000    0.6000000000000001    0.0000000000000000 Pb
   0.2000000000000000    0.6000000000000001    0.2000000000000000 Pb
   0.2000000000000000    0.6000000000000001    0.4000000000000000 Pb
   0.2000000000000000    0.6000000000000001    0.6000000000000001 Pb
   0.2000000000000000    0.6000000000000001    0.8000000000000000 Pb
   0.2000000000000000    0.8000000000000000    0.0000000000000000 Pb
   0.2000000000000000    0.8000000000000000    0.2000000000000000 Pb
   0.2000000000000000    0.8000000000000000    0.4000000000000001 Pb
   0.2000000000000000    0.8000000000000000    0.6000000000000001 Pb
   0.2000000000000000    0.8000000000000000    0.8000000000000000 Pb
   0.4000000000000000    0.0000000000000000    0.0000000000000000 Pb
   0.4000000000000000    0.0000000000000000    0.2000000000000000 Pb
   0.4000000000000000    0.0000000000000000    0.4000000000000000 Pb
   0.4000000000000000    0.0000000000000000    0.6000000000000002 Pb
   0.4000000000000000    0.0000000000000000    0.8000000000000000 Pb
   0.4000000000000000    0.2000000000000000    0.0000000000000000 Pb
   0.4000000000000000    0.2000000000000000    0.2000000000000000 Pb
   0.4000000000000000    0.2000000000000000    0.4000000000000000 Pb
   0.4000000000000000    0.2000000000000000    0.6000000000000001 Pb
   0.4000000000000000    0.2000000000000000    0.8000000000000000 Pb
   0.4000000000000000    0.4000000000000000    0.0000000000000000 Pb
   0.4000000000000000    0.4000000000000000    0.2000000000000000 Pb
   0.4000000000000000    0.4000000000000000    0.4000000000000000 Pb
   0.4000000000000000    0.4000000000000000    0.6000000000000001 Pb
   0.4000000000000000    0.4000000000000000    0.8000000000000000 Pb
   0.4000000000000000    0.6000000000000001    0.0000000000000000 Pb
   0.4000000000000000    0.6000000000000001    0.2000000000000000 Pb
   0.4000000000000000    0.6000000000000001    0.4000000000000001 Pb
   0.4000000000000000    0.6000000000000001    0.6000000000000001 Pb
   0.4000000000000000    0.6000000000000001    0.8000000000000000 Pb
   0.4000000000000000    0.8000000000000000    0.0000000000000000 Pb
   0.4000000000000000    0.8000000000000000    0.2000000000000000 Pb
   0.4000000000000000    0.8000000000000000    0.4000000000000001 Pb
   0.4000000000000000    0.8000000000000000    0.6000000000000001 Pb
   0.4000000000000000    0.8000000000000000    0.8000000000000000 Pb
   0.6000000000000001    0.0000000000000000    0.0000000000000000 Pb
   0.6000000000000001    0.0000000000000000    0.2000000000000000 Pb
   0.6000000000000001    0.0000000000000000    0.4000000000000000 Pb
   0.6000000000000001    0.0000000000000000    0.6000000000000001 Pb
   0.6000000000000001    0.0000000000000000    0.8000000000000000 Pb
   0.6000000000000001    0.2000000000000000    0.0000000000000000 Pb
   0.6000000000000001    0.2000000000000000    0.2000000000000000 Pb
   0.6000000000000001    0.2000000000000000    0.4000000000000000 Pb
   0.6000000000000001    0.2000000000000000    0.6000000000000001 Pb
   0.6000000000000001    0.2000000000000000    0.8000000000000000 Pb
   0.6000000000000001    0.4000000000000000    0.0000000000000000 Pb
   0.6000000000000001    0.4000000000000000    0.2000000000000000 Pb
   0.6000000000000001    0.4000000000000000    0.4000000000000001 Pb
   0.6000000000000001    0.4000000000000000    0.6000000000000001 Pb
   0.6000000000000001    0.4000000000000000    0.8000000000000000 Pb
   0.6000000000000001    0.6000000000000001    0.0000000000000000 Pb
   0.6000000000000001    0.6000000000000001    0.2000000000000000 Pb
   0.6000000000000001    0.6000000000000001    0.4000000000000001 Pb
   0.6000000000000001    0.6000000000000001    0.6000000000000001 Pb
   0.6000000000000001    0.6000000000000001    0.8000000000000000 Pb
   0.6000000000000000    0.8000000000000000    0.0000000000000000 Pb
   0.6000000000000000    0.8000000000000000    0.2000000000000000 Pb
   0.6000000000000000    0.8000000000000000    0.4000000000000001 Pb
   0.6000000000000000    0.8000000000000000    0.6000000000000001 Pb
   0.6000000000000000    0.8000000000000000    0.8000000000000000 Pb
   0.8000000000000000    0.0000000000000000    0.0000000000000000 Pb
   0.8000000000000000    0.0000000000000000    0.2000000000000000 Pb
   0.8000000000000000    0.0000000000000000    0.4000000000000000 Pb
   0.8000000000000000    0.0000000000000000    0.6000000000000001 Pb
   0.8000000000000000    0.0000000000000000    0.8000000000000000 Pb
   0.8000000000000000    0.2000000000000000    0.0000000000000000 Pb
   0.8000000000000000    0.2000000000000000    0.2000000000000000 Pb
   0.8000000000000000    0.2000000000000000    0.4000000000000001 Pb
   0.8000000000000000    0.2000000000000000    0.6000000000000001 Pb
   0.8000000000000000    0.2000000000000000    0.8000000000000000 Pb
   0.8000000000000000    0.4000000000000000    0.0000000000000000 Pb
   0.8000000000000000    0.4000000000000000    0.2000000000000000 Pb
   0.8000000000000000    0.4000000000000000    0.4000000000000001 Pb
   0.8000000000000000    0.4000000000000000    0.6000000000000001 Pb
   0.8000000000000000    0.4000000000000000    0.8000000000000000 Pb
   0.8000000000000000    0.6000000000000001    0.0000000000000000 Pb
   0.8000000000000000    0.6000000000000001    0.2000000000000000 Pb
   0.8000000000000000    0.6000000000000001    0.4000000000000001 Pb
   0.8000000000000000    0.6000000000000001    0.6000000000000001 Pb
   0.8000000000000000    0.6000000000000001    0.8000000000000000 Pb
   0.7999999999999999    0.8000000000000000    0.0000000000000000 Pb
   0.7999999999999999    0.8000000000000000    0.2000000000000000 Pb
   0.7999999999999999    0.8000000000000000    0.4000000000000000 Pb
   0.7999999999999999    0.8000000000000000    0.6000000000000002 Pb
   0.7999999999999999    0.8000000000000000    0.8000000000000000 Pb
   0.1000000000000000    0.1000000000000000    0.1070000000000000 Ti
   0.1000000000000000    0.1000000000000000    0.3070000000000001 Ti
   0.1000000000000000    0.1000000000000000    0.5070000000000000 Ti
   0.1000000000000000    0.1000000000000000    0.7070000000000001 Ti
   0.1000000000000000    0.1000000000000000    0.9070000000000001 Ti
   0.1000000000000000    0.3000000000000000    0.1070000000000000 Ti
   0.1000000000000000    0.3000000000000000    0.3070000000000000 Ti
   0.1000000000000000    0.3000000000000000    0.5070000000000000 Ti
   0.1000000000000000    0.3000000000000000    0.7070000000000002 Ti
   0.1000000000000000    0.3000000000000000    0.9070000000000001 Ti
   0.1000000000000000    0.5000000000000000    0.1070000000000000 Ti
   0.1000000000000000    0.5000000000000000    0.3070000000000000 Ti
   0.1000000000000000    0.5000000000000000    0.5070000000000000 Ti
   0.1000000000000000    0.5000000000000000    0.7070000000000002 Ti
   0.1000000000000000    0.5000000000000000    0.9070000000000000 Ti
   0.1000000000000000    0.7000000000000000    0.1070000000000000 Ti
   0.1000000000000000    0.7000000000000000    0.3070000000000001 Ti
   0.1000000000000000    0.7000000000000000    0.5070000000000000 Ti
   0.1000000000000000    0.7000000000000000    0.7070000000000002 Ti
   0.1000000000000000    0.7000000000000000    0.9070000000000000 Ti
   0.1000000000000000    0.9000000000000000    0.1070000000000000 Ti
   0.1000000000000000    0.9000000000000000    0.3070000000000001 Ti
   0.1000000000000000    0.9000000000000000    0.5070000000000000 Ti
   0.1000000000000000    0.9000000000000000    0.7070000000000001 Ti
   0.1000000000000000    0.9000000000000000    0.9070000000000000 Ti
   0.3000000000000000    0.1000000000000000    0.1070000000000000 Ti
   0.3000000000000000    0.1000000000000000    0.3070000000000000 Ti
   0.3000000000000000    0.1000000000000000    0.5070000000000000 Ti
   0.3000000000000000    0.1000000000000000    0.7070000000000002 Ti
   0.3000000000000000    0.1000000000000000    0.9070000000000001 Ti
   0.3000000000000000    0.3000000000000000    0.1070000000000000 Ti
   0.3000000000000000    0.3000000000000000    0.3070000000000000 Ti
   0.3000000000000000    0.3000000000000000    0.5070000000000000 Ti
   0.3000000000000000    0.3000000000000000    0.7070000000000002 Ti
   0.3000000000000000    0.3000000000000000    0.9070000000000000 Ti
   0.3000000000000000    0.5000000000000000    0.1070000000000000 Ti
   0.3000000000000000    0.5000000000000000    0.3070000000000001 Ti
   0.3000000000000000    0.5000000000000000    0.5070000000000000 Ti
   0.3000000000000000    0.5000000000000000    0.7070000000000002 Ti
   0.3000000000000000    0.5000000000000000    0.9070000000000000 Ti
   0.3000000000000000    0.7000000000000000    0.1070000000000000 Ti
   0.3000000000000000    0.7000000000000000    0.3070000000000001 Ti
   0.3000000000000000    0.7000000000000000    0.5070000000000000 Ti
   0.3000000000000000    0.7000000000000000    0.7070000000000001 Ti
   0.3000000000000000    0.7000000000000000    0.9070000000000000 Ti
   0.3000000000000000    0.9000000000000000    0.1070000000000000 Ti
   0.3000000000000000    0.9000000000000000    0.3070000000000001 Ti
   0.3000000000000000    0.9000000000000000    0.5070000000000001 Ti
   0.3000000000000000    0.9000000000000000    0.7070000000000001 Ti
   0.3000000000000000    0.9000000000000000    0.9070000000000000 Ti
   0.5000000000000000    0.1000000000000000    0.1070000000000000 Ti
   0.5000000000000000    0.1000000000000000    0.3070000000000000 Ti
   0.5000000000000000    0.1000000000000000    0.5070000000000000 Ti
   0.5000000000000000    0.1000000000000000    0.7070000000000002 Ti
   0.5000000000000000    0.1000000000000000    0.9070000000000000 Ti
   0.5000000000000000    0.3000000000000000    0.1070000000000000 Ti
   0.5000000000000000    0.3000000000000000    0.3070000000000001 Ti
   0.5000000000000000    0.3000000000000000    0.5070000000000000 Ti
   0.5000000000000000    0.3000000000000000    0.7070000000000002 Ti
   0.5000000000000000    0.3000000000000000    0.9070000000000000 Ti
   0.5000000000000000    0.5000000000000000    0.1070000000000000 Ti
   0.5000000000000000    0.5000000000000000    0.3070000000000001 Ti
   0.5000000000000000    0.5000000000000000    0.5070000000000000 Ti
   0.5000000000000000    0.5000000000000000    0.7070000000000001 Ti
   0.5000000000000000    0.5000000000000000    0.9070000000000000 Ti
   0.5000000000000000    0.7000000000000000    0.1070000000000000 Ti
   0.5000000000000000    0.7000000000000000    0.3070000000000001 Ti
   0.5000000000000000    0.7000000000000000    0.5070000000000001 Ti
   0.5000000000000000    0.7000000000000000    0.7070000000000001 Ti
   0.5000000000000000    0.7000000000000000    0.9070000000000000 Ti
   0.5000000000000000    0.9000000000000000    0.1070000000000000 Ti
   0.5000000000000000    0.9000000000000000    0.3070000000000001 Ti
   0.5000000000000000    0.9000000000000000    0.5070000000000001 Ti
   0.5000000000000000    0.9000000000000000    0.7070000000000001 Ti
   0.5000000000000000    0.9000000000000000    0.9070000000000000 Ti
   0.7000000000000000    0.1000000000000000    0.1070000000000000 Ti
   0.7000000000000000    0.1000000000000000    0.3070000000000001 Ti
   0.7000000000000000    0.1000000000000000    0.5070000000000000 Ti
   0.7000000000000000    0.1000000000000000    0.7070000000000002 Ti
   0.7000000000000000    0.1000000000000000    0.9070000000000000 Ti
   0.7000000000000000    0.3000000000000000    0.1070000000000000 Ti
   0.7000000000000000    0.3000000000000000    0.3070000000000001 Ti
   0.7000000000000000    0.3000000000000000    0.5070000000000000 Ti
   0.7000000000000000    0.3000000000000000    0.7070000000000001 Ti
   0.7000000000000000    0.3000000000000000    0.9070000000000000 Ti
   0.7000000000000000    0.5000000000000000    0.1070000000000000 Ti
   0.7000000000000000    0.5000000000000000    0.3070000000000001 Ti
   0.7000000000000000    0.5000000000000000    0.5070000000000001 Ti
   0.7000000000000000    0.5000000000000000    0.7070000000000001 Ti
   0.7000000000000000    0.5000000000000000    0.9070000000000000 Ti
   0.7000000000000000    0.7000000000000000    0.1070000000000000 Ti
   0.7000000000000000    0.7000000000000000    0.3070000000000001 Ti
   0.7000000000000000    0.7000000000000000    0.5070000000000001 Ti
   0.7000000000000000    0.7000000000000000    0.7070000000000001 Ti
   0.7000000000000000    0.7000000000000000    0.9070000000000000 Ti
   0.7000000000000000    0.9000000000000000    0.1070000000000000 Ti
   0.7000000000000000    0.9000000000000000    0.3070000000000001 Ti
   0.7000000000000000    0.9000000000000000    0.5070000000000000 Ti
   0.7000000000000000    0.9000000000000000    0.7070000000000001 Ti
   0.7000000000000000    0.9000000000000000    0.9070000000000000 Ti
   0.9000000000000000    0.1000000000000000    0.1070000000000000 Ti
   0.9000000000000000    0.1000000000000000    0.3070000000000001 Ti
   0.9000000000000000    0.1000000000000000    0.5070000000000000 Ti
   0.9000000000000000    0.1000000000000000    0.7070000000000001 Ti
   0.9000000000000000    0.1000000000000000    0.9070000000000000 Ti
   0.9000000000000000    0.3000000000000000    0.1070000000000000 Ti
   0.9000000000000000    0.3000000000000000    0.3070000000000001 Ti
   0.9000000000000000    0.3000000000000000    0.5070000000000001 Ti
   0.9000000000000000    0.3000000000000000    0.7070000000000001 Ti
   0.9000000000000000    0.3000000000000000    0.9070000000000000 Ti
   0.9000000000000000    0.5000000000000000    0.1070000000000000 Ti
   0.9000000000000000    0.5000000000000000    0.3070000000000001 Ti
   0.9000000000000000    0.5000000000000000    0.5070000000000001 Ti
   0.9000000000000000    0.5000000000000000    0.7070000000000001 Ti
   0.9000000000000000    0.5000000000000000    0.9070000000000000 Ti
   0.9000000000000000    0.7000000000000000    0.1070000000000000 Ti
   0.9000000000000000    0.7000000000000000    0.3070000000000001 Ti
   0.9000000000000000    0.7000000000000000    0.5070000000000000 Ti
   0.9000000000000000    0.7000000000000000    0.7070000000000001 Ti
   0.9000000000000000    0.7000000000000000    0.9070000000000000 Ti
   0.9000000000000000    0.9000000000000000    0.1070000000000000 Ti
   0.9000000000000000    0.9000000000000000    0.3070000000000000 Ti
   0.9000000000000000    0.9000000000000000    0.5070000000000000 Ti
   0.9000000000000000    0.9000000000000000    0.7070000000000002 Ti
   0.9000000000000000    0.9000000000000000    0.9070000000000000 Ti
   0.1000000000000000    0.1000000000000000    0.0200000000000000 O
   0.1000000000000000    0.1000000000000000    0.2200000000000000 O
   0.1000000000000000    0.1000000000000000    0.4200000000000001 O
   0.1000000000000000    0.1000000000000000    0.6200000000000001 O
   0.1000000000000000    0.1000000000000000    0.8200000000000001 O
   0.1000000000000000    0.3000000000000000    0.0200000000000000 O
   0.1000000000000000    0.3000000000000000    0.2200000000000000 O
   0.1000000000000000    0.3000000000000000    0.4200000000000001 O
   0.1000000000000000    0.3000000000000000    0.6200000000000002 O
   0.1000000000000000    0.3000000000000000    0.8200000000000001 O
   0.1000000000000000    0.5000000000000000    0.0200000000000000 O
   0.1000000000000000    0.5000000000000000    0.2200000000000000 O
   0.1000000000000000    0.5000000000000000    0.4200000000000000 O
   0.1000000000000000    0.5000000000000000    0.6200000000000002 O
   0.1000000000000000    0.5000000000000000    0.8200000000000001 O
   0.1000000000000000    0.7000000000000000    0.0200000000000000 O
   0.1000000000000000    0.7000000000000000    0.2200000000000000 O
   0.1000000000000000    0.7000000000000000    0.4200000000000000 O
   0.1000000000000000    0.7000000000000000    0.6200000000000002 O
   0.1000000000000000    0.7000000000000000    0.8200000000000001 O
   0.1000000000000000    0.9000000000000000    0.0200000000000000 O
   0.1000000000000000    0.9000000000000000    0.2200000000000000 O
   0.1000000000000000    0.9000000000000000    0.4200000000000000 O
   0.1000000000000000    0.9000000000000000    0.6200000000000001 O
   0.1000000000000000    0.9000000000000000    0.8200000000000001 O
   0.3000000000000000    0.1000000000000000    0.0200000000000000 O
   0.3000000000000000    0.1000000000000000    0.2200000000000000 O
   0.3000000000000000    0.1000000000000000    0.4200000000000001 O
   0.3000000000000000    0.1000000000000000    0.6200000000000002 O
   0.3000000000000000    0.1000000000000000    0.8200000000000001 O
   0.3000000000000000    0.3000000000000000    0.0200000000000000 O
   0.3000000000000000    0.3000000000000000    0.2200000000000000 O
   0.3000000000000000    0.3000000000000000    0.4200000000000000 O
   0.3000000000000000    0.3000000000000000    0.6200000000000002 O
   0.3000000000000000    0.3000000000000000    0.8200000000000001 O
   0.3000000000000000    0.5000000000000000    0.0200000000000000 O
   0.3000000000000000    0.5000000000000000    0.2200000000000000 O
   0.3000000000000000    0.5000000000000000    0.4200000000000000 O
   0.3000000000000000    0.5000000000000000    0.6200000000000002 O
   0.3000000000000000    0.5000000000000000    0.8200000000000001 O
   0.3000000000000000    0.7000000000000000    0.0200000000000000 O
   0.3000000000000000    0.7000000000000000    0.2200000000000000 O
   0.3000000000000000    0.7000000000000000    0.4200000000000000 O
   0.3000000000000000    0.7000000000000000    0.6200000000000001 O
   0.3000000000000000    0.7000000000000000    0.8200000000000001 O
   0.3000000000000000    0.9000000000000000    0.0200000000000000 O
   0.3000000000000000    0.9000000000000000    0.2200000000000000 O
   0.3000000000000000    0.9000000000000000    0.4200000000000001 O
   0.3000000000000000    0.9000000000000000    0.6200000000000001 O
   0.3000000000000000    0.9000000000000000    0.8200000000000000 O
   0.5000000000000000    0.1000000000000000    0.0200000000000000 O
   0.5000000000000000    0.1000000000000000    0.2200000000000000 O
   0.5000000000000000    0.1000000000000000    0.4200000000000000 O
   0.5000000000000000    0.1000000000000000    0.6200000000000002 O
   0.5000000000000000    0.1000000000000000    0.8200000000000001 O
   0.5000000000000000    0.3000000000000000    0.0200000000000000 O
   0.5000000000000000    0.3000000000000000    0.2200000000000000 O
   0.5000000000000000    0.3000000000000000    0.4200000000000000 O
   0.5000000000000000    0.3000000000000000    0.6200000000000002 O
   0.5000000000000000    0.3000000000000000    0.8200000000000001 O
   0.5000000000000000    0.5000000000000000    0.0200000000000000 O
   0.5000000000000000    0.5000000000000000    0.2200000000000000 O
   0.5000000000000000    0.5000000000000000    0.4200000000000000 O
   0.5000000000000000    0.5000000000000000    0.6200000000000001 O
   0.5000000000000000    0.5000000000000000    0.8200000000000001 O
   0.5000000000000000    0.7000000000000000    0.0200000000000000 O
   0.5000000000000000    0.7000000000000000    0.2200000000000000 O
   0.5000000000000000    0.7000000000000000    0.4200000000000001 O
   0.5000000000000000    0.7000000000000000    0.6200000000000001 O
   0.5000000000000000    0.7000000000000000    0.8200000000000000 O
   0.5000000000000000    0.9000000000000000    0.0200000000000000 O
   0.5000000000000000    0.9000000000000000    0.2200000000000000 O
   0.5000000000000000    0.9000000000000000    0.4200000000000001 O
   0.5000000000000000    0.9000000000000000    0.6200000000000001 O
   0.5000000000000000    0.9000000000000000    0.8200000000000000 O
   0.7000000000000000    0.1000000000000000    0.0200000000000000 O
   0.7000000000000000    0.1000000000000000    0.2200000000000000 O
   0.7000000000000000    0.1000000000000000    0.4200000000000000 O
   0.7000000000000000    0.1000000000000000    0.6200000000000002 O
   0.7000000000000000    0.1000000000000000    0.8200000000000001 O
   0.7000000000000000    0.3000000000000000    0.0200000000000000 O
   0.7000000000000000    0.3000000000000000    0.2200000000000000 O
   0.7000000000000000    0.3000000000000000    0.4200000000000000 O
   0.7000000000000000    0.3000000000000000    0.6200000000000001 O
   0.7000000000000000    0.3000000000000000    0.8200000000000001 O
   0.7000000000000000    0.5000000000000000    0.0200000000000000 O
   0.7000000000000000    0.5000000000000000    0.2200000000000000 O
   0.7000000000000000    0.5000000000000000    0.4200000000000001 O
   0.7000000000000000    0.5000000000000000    0.6200000000000001 O
   0.7000000000000000    0.5000000000000000    0.8200000000000000 O
   0.7000000000000000    0.7000000000000000    0.0200000000000000 O
   0.7000000000000000    0.7000000000000000    0.2200000000000000 O
   0.7000000000000000    0.7000000000000000    0.4200000000000001 O
   0.7000000000000000    0.7000000000000000    0.6200000000000001 O
   0.7000000000000000    0.7000000000000000    0.8200000000000000 O
   0.7000000000000000    0.9000000000000000    0.0200000000000000 O
   0.7000000000000000    0.9000000000000000    0.2200000000000000 O
   0.7000000000000000    0.9000000000000000    0.4200000000000001 O
   0.7000000000000000    0.9000000000000000    0.6200000000000001 O
   0.7000000000000000    0.9000000000000000    0.8200000000000000 O
   0.9000000000000000    0.1000000000000000    0.0200000000000000 O
   0.9000000000000000    0.1000000000000000    0.2200000000000000 O
   0.9000000000000000    0.1000000000000000    0.4200000000000000 O
   0.9000000000000000    0.1000000000000000    0.6200000000000001 O
   0.9000000000000000    0.1000000000000000    0.8200000000000001 O
   0.9000000000000000    0.3000000000000000    0.0200000000000000 O
   0.9000000000000000    0.3000000000000000    0.2200000000000000 O
   0.9000000000000000    0.3000000000000000    0.4200000000000001 O
   0.9000000000000000    0.3000000000000000    0.6200000000000001 O
   0.9000000000000000    0.3000000000000000    0.8200000000000000 O
   0.9000000000000000    0.5000000000000000    0.0200000000000000 O
   0.9000000000000000    0.5000000000000000    0.2200000000000000 O
   0.9000000000000000    0.5000000000000000    0.4200000000000001 O
   0.9000000000000000    0.5000000000000000    0.6200000000000001 O
   0.9000000000000000    0.5000000000000000    0.8200000000000000 O
   0.9000000000000000    0.7000000000000000    0.0200000000000000 O
   0.9000000000000000    0.7000000000000000    0.2200000000000000 O
   0.9000000000000000    0.7000000000000000    0.4200000000000001 O
   0.9000000000000000    0.7000000000000000    0.6200000000000001 O
   0.9000000000000000    0.7000000000000000    0.8200000000000000 O
   0.9000000000000000    0.9000000000000000    0.0200000000000000 O
   0.9000000000000000    0.9000000000000000    0.2200000000000000 O
   0.9000000000000000    0.9000000000000000    0.4200000000000001 O
   0.9000000000000000    0.9000000000000000    0.6200000000000002 O
   0.9000000000000000    0.9000000000000000    0.8200000000000000 O
   0.1000000000000000    0.0000000000000000    0.1230000000000000 O
   0.1000000000000000    0.0000000000000000    0.3230000000000001 O
   0.1000000000000000    0.0000000000000000    0.5230000000000001 O
   0.1000000000000000    0.0000000000000000    0.7230000000000001 O
   0.1000000000000000    0.0000000000000000    0.9230000000000002 O
   0.1000000000000000    0.2000000000000000    0.1230000000000000 O
   0.1000000000000000    0.2000000000000000    0.3230000000000001 O
   0.1000000000000000    0.2000000000000000    0.5230000000000001 O
   0.1000000000000000    0.2000000000000000    0.7230000000000002 O
   0.1000000000000000    0.2000000000000000    0.9230000000000002 O
   0.1000000000000000    0.4000000000000000    0.1230000000000000 O
   0.1000000000000000    0.4000000000000000    0.3230000000000001 O
   0.1000000000000000    0.4000000000000000    0.5230000000000000 O
   0.1000000000000000    0.4000000000000000    0.7230000000000002 O
   0.1000000000000000    0.4000000000000000    0.9230000000000002 O
   0.1000000000000000    0.6000000000000001    0.1230000000000000 O
   0.1000000000000000    0.6000000000000001    0.3230000000000000 O
   0.1000000000000000    0.6000000000000001    0.5230000000000000 O
   0.1000000000000000    0.6000000000000001    0.7230000000000002 O
   0.1000000000000000    0.6000000000000001    0.9230000000000002 O
   0.1000000000000000    0.8000000000000000    0.1230000000000000 O
   0.1000000000000000    0.8000000000000000    0.3230000000000000 O
   0.1000000000000000    0.8000000000000000    0.5230000000000000 O
   0.1000000000000000    0.8000000000000000    0.7230000000000002 O
   0.1000000000000000    0.8000000000000000    0.9230000000000002 O
   0.3000000000000000    0.0000000000000000    0.1230000000000000 O
   0.3000000000000000    0.0000000000000000    0.3230000000000001 O
   0.3000000000000000    0.0000000000000000    0.5230000000000001 O
   0.3000000000000000    0.0000000000000000    0.7230000000000002 O
   0.3000000000000000    0.0000000000000000    0.9230000000000002 O
   0.3000000000000000    0.2000000000000000    0.1230000000000000 O
   0.3000000000000000    0.2000000000000000    0.3230000000000001 O
   0.3000000000000000    0.2000000000000000    0.5230000000000000 O
   0.3000000000000000    0.2000000000000000    0.7230000000000002 O
   0.3000000000000000    0.2000000000000000    0.9230000000000002 O
   0.3000000000000000    0.4000000000000000    0.1230000000000000 O
   0.3000000000000000    0.4000000000000000    0.3230000000000000 O
   0.3000000000000000    0.4000000000000000    0.5230000000000000 O
   0.3000000000000000    0.4000000000000000    0.7230000000000002 O
   0.3000000000000000    0.4000000000000000    0.9230000000000002 O
   0.3000000000000000    0.6000000000000001    0.1230000000000000 O
   0.3000000000000000    0.6000000000000001    0.3230000000000000 O
   0.3000000000000000    0.6000000000000001    0.5230000000000000 O
   0.3000000000000000    0.6000000000000001    0.7230000000000002 O
   0.3000000000000000    0.6000000000000001    0.9230000000000002 O
   0.3000000000000000    0.8000000000000000    0.1230000000000000 O
   0.3000000000000000    0.8000000000000000    0.3230000000000000 O
   0.3000000000000000    0.8000000000000000    0.5230000000000001 O
   0.3000000000000000    0.8000000000000000    0.7230000000000002 O
   0.3000000000000000    0.8000000000000000    0.9230000000000000 O
   0.5000000000000000    0.0000000000000000    0.1230000000000000 O
   0.5000000000000000    0.0000000000000000    0.3230000000000001 O
   0.5000000000000000    0.0000000000000000    0.5230000000000000 O
   0.5000000000000000    0.0000000000000000    0.7230000000000002 O
   0.5000000000000000    0.0000000000000000    0.9230000000000002 O
   0.5000000000000000    0.2000000000000000    0.1230000000000000 O
   0.5000000000000000    0.2000000000000000    0.3230000000000000 O
   0.5000000000000000    0.2000000000000000    0.5230000000000000 O